;; Mutation-Based Equivalence Benchmark
;; Source:     AutomatArk / instance07646.smt2
;; Mutations:  range_shrink_hi, range_shrink_hi
;; Status:     sat
;;
;; Original regex vs mutated regex
;; Equivalence check: unsat ⟺ L(R1) = L(R2)

(set-info :smt-lib-version 2.6)
(set-info :category "mutation")
(set-info :status sat)
(set-logic QF_S)

(declare-const x String)

;; R1: original
;; R2: mutated (range_shrink_hi, range_shrink_hi)
(assert
  (str.in_re x
    (re.union (re.inter (re.++ (re.union (str.to_re "http") (str.to_re "https") (str.to_re "ftp")) (str.to_re "://") (re.* (re.++ (re.+ (re.union (re.range "a" "z") (re.range "A" "Z") (re.range "0" "9") (str.to_re ".") (str.to_re "-"))) (re.* (re.++ (str.to_re ":") (re.+ (re.union (re.range "a" "z") (re.range "A" "Z") (re.range "0" "9") (str.to_re ".") (str.to_re "&") (str.to_re "%") (str.to_re "$") (str.to_re "-"))))) (str.to_re "@"))) (re.union (re.++ (re.union (re.++ (str.to_re "25") (re.range "0" "5")) (re.++ (str.to_re "2") (re.range "0" "4") (re.range "0" "9")) (re.++ ((_ re.loop 1 1) (re.range "0" "1")) ((_ re.loop 2 2) (re.range "0" "9"))) (re.++ ((_ re.loop 1 1) (re.range "1" "9")) ((_ re.loop 1 1) (re.range "0" "9"))) (re.range "1" "9")) (str.to_re ".") (re.union (re.++ (str.to_re "25") (re.range "0" "5")) (re.++ (str.to_re "2") (re.range "0" "4") (re.range "0" "9")) (re.++ ((_ re.loop 1 1) (re.range "0" "1")) ((_ re.loop 2 2) (re.range "0" "9"))) (re.++ ((_ re.loop 1 1) (re.range "1" "9")) ((_ re.loop 1 1) (re.range "0" "9"))) (re.range "1" "9") (str.to_re "0")) (str.to_re ".") (re.union (re.++ (str.to_re "25") (re.range "0" "5")) (re.++ (str.to_re "2") (re.range "0" "4") (re.range "0" "9")) (re.++ ((_ re.loop 1 1) (re.range "0" "1")) ((_ re.loop 2 2) (re.range "0" "9"))) (re.++ ((_ re.loop 1 1) (re.range "1" "9")) ((_ re.loop 1 1) (re.range "0" "9"))) (re.range "1" "9") (str.to_re "0")) (str.to_re ".") (re.union (re.++ (str.to_re "25") (re.range "0" "5")) (re.++ (str.to_re "2") (re.range "0" "4") (re.range "0" "9")) (re.++ ((_ re.loop 1 1) (re.range "0" "1")) ((_ re.loop 2 2) (re.range "0" "9"))) (re.++ ((_ re.loop 1 1) (re.range "1" "9")) ((_ re.loop 1 1) (re.range "0" "9"))) (re.range "0" "9"))) (str.to_re "localhost") (re.++ (re.* (re.++ (re.+ (re.union (re.range "a" "z") (re.range "A" "Z") (re.range "0" "9") (str.to_re "-"))) (str.to_re "."))) (re.+ (re.union (re.range "a" "z") (re.range "A" "Z") (re.range "0" "9") (str.to_re "-"))) (str.to_re ".") (re.union (str.to_re "com") (str.to_re "edu") (str.to_re "gov") (str.to_re "int") (str.to_re "mil") (str.to_re "net") (str.to_re "org") (str.to_re "biz") (str.to_re "arpa") (str.to_re "info") (str.to_re "name") (str.to_re "pro") (str.to_re "aero") (str.to_re "coop") (str.to_re "museum") ((_ re.loop 2 2) (re.union (re.range "a" "z") (re.range "A" "Z")))))) (re.* (re.++ (str.to_re ":") (re.+ (re.range "0" "9")))) (re.* (re.++ (str.to_re "/") (re.+ (re.union (re.range "a" "z") (re.range "A" "Z") (re.range "0" "9") (str.to_re ".") (str.to_re ",") (str.to_re "?") (str.to_re "'") (str.to_re "\u{5c}") (str.to_re "+") (str.to_re "&") (str.to_re "%") (str.to_re "$") (str.to_re "#") (str.to_re "=") (str.to_re "~") (str.to_re "_") (str.to_re "-"))))) (str.to_re "\u{a}")) (re.comp (re.++ (re.union (str.to_re "http") (str.to_re "https") (str.to_re "ftp")) (str.to_re "://") (re.* (re.++ (re.+ (re.union (re.range "a" "z") (re.range "A" "Z") (re.range "0" "9") (str.to_re ".") (str.to_re "-"))) (re.* (re.++ (str.to_re ":") (re.+ (re.union (re.range "a" "z") (re.range "A" "Z") (re.range "0" "9") (str.to_re ".") (str.to_re "&") (str.to_re "%") (str.to_re "$") (str.to_re "-"))))) (str.to_re "@"))) (re.union (re.++ (re.union (re.++ (str.to_re "25") (re.range "0" "5")) (re.++ (str.to_re "2") (re.range "0" "4") (re.range "0" "9")) (re.++ ((_ re.loop 1 1) (re.range "0" "1")) ((_ re.loop 2 2) (re.range "0" "9"))) (re.++ ((_ re.loop 1 1) (re.range "1" "8")) ((_ re.loop 1 1) (re.range "0" "9"))) (re.range "1" "9")) (str.to_re ".") (re.union (re.++ (str.to_re "25") (re.range "0" "5")) (re.++ (str.to_re "2") (re.range "0" "4") (re.range "0" "9")) (re.++ ((_ re.loop 1 1) (re.range "0" "1")) ((_ re.loop 2 2) (re.range "0" "9"))) (re.++ ((_ re.loop 1 1) (re.range "1" "9")) ((_ re.loop 1 1) (re.range "0" "9"))) (re.range "1" "9") (str.to_re "0")) (str.to_re ".") (re.union (re.++ (str.to_re "25") (re.range "0" "5")) (re.++ (str.to_re "2") (re.range "0" "4") (re.range "0" "8")) (re.++ ((_ re.loop 1 1) (re.range "0" "1")) ((_ re.loop 2 2) (re.range "0" "9"))) (re.++ ((_ re.loop 1 1) (re.range "1" "9")) ((_ re.loop 1 1) (re.range "0" "9"))) (re.range "1" "9") (str.to_re "0")) (str.to_re ".") (re.union (re.++ (str.to_re "25") (re.range "0" "5")) (re.++ (str.to_re "2") (re.range "0" "4") (re.range "0" "9")) (re.++ ((_ re.loop 1 1) (re.range "0" "1")) ((_ re.loop 2 2) (re.range "0" "9"))) (re.++ ((_ re.loop 1 1) (re.range "1" "9")) ((_ re.loop 1 1) (re.range "0" "9"))) (re.range "0" "9"))) (str.to_re "localhost") (re.++ (re.* (re.++ (re.+ (re.union (re.range "a" "z") (re.range "A" "Z") (re.range "0" "9") (str.to_re "-"))) (str.to_re "."))) (re.+ (re.union (re.range "a" "z") (re.range "A" "Z") (re.range "0" "9") (str.to_re "-"))) (str.to_re ".") (re.union (str.to_re "com") (str.to_re "edu") (str.to_re "gov") (str.to_re "int") (str.to_re "mil") (str.to_re "net") (str.to_re "org") (str.to_re "biz") (str.to_re "arpa") (str.to_re "info") (str.to_re "name") (str.to_re "pro") (str.to_re "aero") (str.to_re "coop") (str.to_re "museum") ((_ re.loop 2 2) (re.union (re.range "a" "z") (re.range "A" "Z")))))) (re.* (re.++ (str.to_re ":") (re.+ (re.range "0" "9")))) (re.* (re.++ (str.to_re "/") (re.+ (re.union (re.range "a" "z") (re.range "A" "Z") (re.range "0" "9") (str.to_re ".") (str.to_re ",") (str.to_re "?") (str.to_re "'") (str.to_re "\u{5c}") (str.to_re "+") (str.to_re "&") (str.to_re "%") (str.to_re "$") (str.to_re "#") (str.to_re "=") (str.to_re "~") (str.to_re "_") (str.to_re "-"))))) (str.to_re "\u{a}")))) (re.inter (re.comp (re.++ (re.union (str.to_re "http") (str.to_re "https") (str.to_re "ftp")) (str.to_re "://") (re.* (re.++ (re.+ (re.union (re.range "a" "z") (re.range "A" "Z") (re.range "0" "9") (str.to_re ".") (str.to_re "-"))) (re.* (re.++ (str.to_re ":") (re.+ (re.union (re.range "a" "z") (re.range "A" "Z") (re.range "0" "9") (str.to_re ".") (str.to_re "&") (str.to_re "%") (str.to_re "$") (str.to_re "-"))))) (str.to_re "@"))) (re.union (re.++ (re.union (re.++ (str.to_re "25") (re.range "0" "5")) (re.++ (str.to_re "2") (re.range "0" "4") (re.range "0" "9")) (re.++ ((_ re.loop 1 1) (re.range "0" "1")) ((_ re.loop 2 2) (re.range "0" "9"))) (re.++ ((_ re.loop 1 1) (re.range "1" "9")) ((_ re.loop 1 1) (re.range "0" "9"))) (re.range "1" "9")) (str.to_re ".") (re.union (re.++ (str.to_re "25") (re.range "0" "5")) (re.++ (str.to_re "2") (re.range "0" "4") (re.range "0" "9")) (re.++ ((_ re.loop 1 1) (re.range "0" "1")) ((_ re.loop 2 2) (re.range "0" "9"))) (re.++ ((_ re.loop 1 1) (re.range "1" "9")) ((_ re.loop 1 1) (re.range "0" "9"))) (re.range "1" "9") (str.to_re "0")) (str.to_re ".") (re.union (re.++ (str.to_re "25") (re.range "0" "5")) (re.++ (str.to_re "2") (re.range "0" "4") (re.range "0" "9")) (re.++ ((_ re.loop 1 1) (re.range "0" "1")) ((_ re.loop 2 2) (re.range "0" "9"))) (re.++ ((_ re.loop 1 1) (re.range "1" "9")) ((_ re.loop 1 1) (re.range "0" "9"))) (re.range "1" "9") (str.to_re "0")) (str.to_re ".") (re.union (re.++ (str.to_re "25") (re.range "0" "5")) (re.++ (str.to_re "2") (re.range "0" "4") (re.range "0" "9")) (re.++ ((_ re.loop 1 1) (re.range "0" "1")) ((_ re.loop 2 2) (re.range "0" "9"))) (re.++ ((_ re.loop 1 1) (re.range "1" "9")) ((_ re.loop 1 1) (re.range "0" "9"))) (re.range "0" "9"))) (str.to_re "localhost") (re.++ (re.* (re.++ (re.+ (re.union (re.range "a" "z") (re.range "A" "Z") (re.range "0" "9") (str.to_re "-"))) (str.to_re "."))) (re.+ (re.union (re.range "a" "z") (re.range "A" "Z") (re.range "0" "9") (str.to_re "-"))) (str.to_re ".") (re.union (str.to_re "com") (str.to_re "edu") (str.to_re "gov") (str.to_re "int") (str.to_re "mil") (str.to_re "net") (str.to_re "org") (str.to_re "biz") (str.to_re "arpa") (str.to_re "info") (str.to_re "name") (str.to_re "pro") (str.to_re "aero") (str.to_re "coop") (str.to_re "museum") ((_ re.loop 2 2) (re.union (re.range "a" "z") (re.range "A" "Z")))))) (re.* (re.++ (str.to_re ":") (re.+ (re.range "0" "9")))) (re.* (re.++ (str.to_re "/") (re.+ (re.union (re.range "a" "z") (re.range "A" "Z") (re.range "0" "9") (str.to_re ".") (str.to_re ",") (str.to_re "?") (str.to_re "'") (str.to_re "\u{5c}") (str.to_re "+") (str.to_re "&") (str.to_re "%") (str.to_re "$") (str.to_re "#") (str.to_re "=") (str.to_re "~") (str.to_re "_") (str.to_re "-"))))) (str.to_re "\u{a}"))) (re.++ (re.union (str.to_re "http") (str.to_re "https") (str.to_re "ftp")) (str.to_re "://") (re.* (re.++ (re.+ (re.union (re.range "a" "z") (re.range "A" "Z") (re.range "0" "9") (str.to_re ".") (str.to_re "-"))) (re.* (re.++ (str.to_re ":") (re.+ (re.union (re.range "a" "z") (re.range "A" "Z") (re.range "0" "9") (str.to_re ".") (str.to_re "&") (str.to_re "%") (str.to_re "$") (str.to_re "-"))))) (str.to_re "@"))) (re.union (re.++ (re.union (re.++ (str.to_re "25") (re.range "0" "5")) (re.++ (str.to_re "2") (re.range "0" "4") (re.range "0" "9")) (re.++ ((_ re.loop 1 1) (re.range "0" "1")) ((_ re.loop 2 2) (re.range "0" "9"))) (re.++ ((_ re.loop 1 1) (re.range "1" "8")) ((_ re.loop 1 1) (re.range "0" "9"))) (re.range "1" "9")) (str.to_re ".") (re.union (re.++ (str.to_re "25") (re.range "0" "5")) (re.++ (str.to_re "2") (re.range "0" "4") (re.range "0" "9")) (re.++ ((_ re.loop 1 1) (re.range "0" "1")) ((_ re.loop 2 2) (re.range "0" "9"))) (re.++ ((_ re.loop 1 1) (re.range "1" "9")) ((_ re.loop 1 1) (re.range "0" "9"))) (re.range "1" "9") (str.to_re "0")) (str.to_re ".") (re.union (re.++ (str.to_re "25") (re.range "0" "5")) (re.++ (str.to_re "2") (re.range "0" "4") (re.range "0" "8")) (re.++ ((_ re.loop 1 1) (re.range "0" "1")) ((_ re.loop 2 2) (re.range "0" "9"))) (re.++ ((_ re.loop 1 1) (re.range "1" "9")) ((_ re.loop 1 1) (re.range "0" "9"))) (re.range "1" "9") (str.to_re "0")) (str.to_re ".") (re.union (re.++ (str.to_re "25") (re.range "0" "5")) (re.++ (str.to_re "2") (re.range "0" "4") (re.range "0" "9")) (re.++ ((_ re.loop 1 1) (re.range "0" "1")) ((_ re.loop 2 2) (re.range "0" "9"))) (re.++ ((_ re.loop 1 1) (re.range "1" "9")) ((_ re.loop 1 1) (re.range "0" "9"))) (re.range "0" "9"))) (str.to_re "localhost") (re.++ (re.* (re.++ (re.+ (re.union (re.range "a" "z") (re.range "A" "Z") (re.range "0" "9") (str.to_re "-"))) (str.to_re "."))) (re.+ (re.union (re.range "a" "z") (re.range "A" "Z") (re.range "0" "9") (str.to_re "-"))) (str.to_re ".") (re.union (str.to_re "com") (str.to_re "edu") (str.to_re "gov") (str.to_re "int") (str.to_re "mil") (str.to_re "net") (str.to_re "org") (str.to_re "biz") (str.to_re "arpa") (str.to_re "info") (str.to_re "name") (str.to_re "pro") (str.to_re "aero") (str.to_re "coop") (str.to_re "museum") ((_ re.loop 2 2) (re.union (re.range "a" "z") (re.range "A" "Z")))))) (re.* (re.++ (str.to_re ":") (re.+ (re.range "0" "9")))) (re.* (re.++ (str.to_re "/") (re.+ (re.union (re.range "a" "z") (re.range "A" "Z") (re.range "0" "9") (str.to_re ".") (str.to_re ",") (str.to_re "?") (str.to_re "'") (str.to_re "\u{5c}") (str.to_re "+") (str.to_re "&") (str.to_re "%") (str.to_re "$") (str.to_re "#") (str.to_re "=") (str.to_re "~") (str.to_re "_") (str.to_re "-"))))) (str.to_re "\u{a}"))))))

(check-sat)
(exit)
